
List of user-set options:

                                    Name   Value                used
                           compl_inf_tol = 1                     yes
                         constr_viol_tol = 1                     yes
                            dual_inf_tol = 1000                  yes
                           linear_solver = ma97                  yes
                              ma86_small = 1e-30                  no
                                  ma86_u = 0.0001                 no
                              ma97_order = best                  yes
                              ma97_small = 1e-30                 yes
                            ma97_switch1 = at_start              yes
                            ma97_switch2 = od_hd_reuse           yes
                                  ma97_u = 1e-06                 yes
                               ma97_umax = 0.5                   yes
                                max_iter = 1000                  yes
                    max_refinement_steps = 20                    yes
                    min_refinement_steps = 5                     yes
                                 mu_init = 1e-06                 yes
           mu_superlinear_decrease_power = 1.25                  yes
                   nlp_scaling_min_value = 1e-08                 yes
                        option_file_name = Preset_Case:_898_NCP.opt  yes
                             output_file = ./tmp/Preset_Case:_898_NCP.output  yes
                      print_user_options = yes                   yes
        required_infeasibility_reduction = 1                      no
                                     tol = 1e-08                 yes
                   warm_start_bound_frac = 1e-20                 yes
                   warm_start_bound_push = 1e-20                 yes
                   warm_start_init_point = yes                   yes
              warm_start_mult_bound_push = 1e-20                 yes
                warm_start_mult_init_max = 1e+40                 yes
             warm_start_slack_bound_frac = 1e-20                 yes
             warm_start_slack_bound_push = 1e-20                 yes

******************************************************************************
This program contains Ipopt, a library for large-scale nonlinear optimization.
 Ipopt is released as open source code under the Eclipse Public License (EPL).
         For more information visit http://projects.coin-or.org/Ipopt
******************************************************************************

This is Ipopt version 3.12.10, running with linear solver ma97.

Number of nonzeros in equality constraint Jacobian...:   117167
Number of nonzeros in inequality constraint Jacobian.:      213
Number of nonzeros in Lagrangian Hessian.............:    47513

Total number of variables............................:    29977
                     variables with only lower bounds:    11312
                variables with lower and upper bounds:    15135
                     variables with only upper bounds:        0
Total number of equality constraints.................:    29864
Total number of inequality constraints...............:       25
        inequality constraints with only lower bounds:        4
   inequality constraints with lower and upper bounds:        0
        inequality constraints with only upper bounds:       21

iter    objective    inf_pr   inf_du lg(mu)  ||d||  lg(rg) alpha_du alpha_pr  ls
   0 -1.7943578e-01 2.10e-01 2.00e+00  -6.0 0.00e+00    -  0.00e+00 0.00e+00   0
In iteration 0, 8 Slacks too small, adjusting variable bounds
   1 -1.7943578e-01 2.10e-01 2.44e+02  -6.0 1.13e+10    -  2.43e-14 4.58e-19h  1
   2 -1.7943511e-01 2.10e-01 2.61e+02  -6.0 7.73e+01    -  1.00e-02 3.85e-05f  1
   3 -1.7943429e-01 2.10e-01 2.61e+02  -6.0 7.11e+01    -  1.20e-02 4.91e-05h  1
   4 -1.7903430e-01 2.05e-01 2.55e+02  -6.0 7.11e+01    -  2.24e-02 2.36e-02h  1
   5 -1.7873984e-01 2.01e-01 2.50e+02  -6.0 7.25e+01    -  2.25e-02 1.83e-02h  1
   6 -1.7840674e-01 1.97e-01 2.45e+02  -6.0 6.53e+01    -  3.97e-02 2.05e-02h  1
   7 -1.7782912e-01 1.88e-01 2.37e+02  -6.0 5.43e+01    -  8.98e-02 4.62e-02h  1
   8 -1.7718729e-01 1.78e-01 2.30e+02  -6.0 6.56e+01    -  1.09e-01 5.04e-02h  3
   9 -1.7659728e-01 1.68e-01 2.14e+02  -6.0 6.19e+01    -  2.77e-02 5.66e-02h  3
iter    objective    inf_pr   inf_du lg(mu)  ||d||  lg(rg) alpha_du alpha_pr  ls
  10 -1.7611697e-01 1.58e-01 2.17e+02  -6.0 5.65e+01    -  2.27e-01 6.09e-02h  3
  11 -1.7547944e-01 1.46e-01 2.79e+02  -6.0 5.55e+01    -  8.37e-02 7.44e-02h  3
  12 -1.7478067e-01 1.36e-01 3.49e+02  -6.0 7.32e+01    -  9.18e-02 6.91e-02h  3
  13 -1.7369910e-01 1.23e-01 3.86e+02  -6.0 8.43e+01    -  1.78e-01 9.86e-02h  1
  14 -1.7183734e-01 1.07e-01 3.28e+02  -6.0 8.61e+01    -  1.69e-01 1.25e-01h  3
  15 -1.6798543e-01 8.13e-02 4.15e+02  -6.0 7.22e+01    -  1.77e-01 2.43e-01h  2
  16 -1.6461717e-01 4.81e-02 5.67e+02  -6.0 4.25e+01    -  1.53e-01 4.09e-01H  1
  17 -1.6401904e-01 4.61e-02 3.42e+02  -6.0 2.69e+01    -  2.03e-01 3.98e-01h  1
  18 -1.6573850e-01 5.92e-02 3.08e+02  -6.0 3.73e+01    -  2.46e-01 1.00e-01h  1
  19 -1.6762799e-01 7.70e-02 2.69e+02  -6.0 3.19e+01    -  9.10e-04 1.27e-01h  2
iter    objective    inf_pr   inf_du lg(mu)  ||d||  lg(rg) alpha_du alpha_pr  ls
  20 -1.6793903e-01 8.14e-02 2.53e+02  -6.0 7.01e+01    -  2.35e-01 5.99e-02h  4
  21 -1.6844818e-01 9.57e-02 2.26e+02  -6.0 6.57e+01    -  6.32e-02 1.13e-01h  3
  22 -1.6877494e-01 9.54e-02 2.04e+02  -6.0 5.39e+01    -  1.20e-01 1.04e-01h  3
  23 -1.6931907e-01 1.28e-01 6.27e+02  -6.0 2.70e+01    -  5.50e-01 4.13e-01H  1
  24 -1.7155629e-01 2.13e-01 4.00e+02  -6.0 2.25e+01    -  6.06e-01 3.68e-01h  1
  25 -1.7691961e-01 1.11e+00 1.01e+02  -6.0 1.76e+01    -  6.88e-01 9.78e-01h  1
  26 -1.7779285e-01 8.59e-01 7.82e+01  -6.0 1.21e+01    -  1.17e-02 2.27e-01h  1
  27 -1.8148012e-01 8.29e-02 1.33e+02  -6.0 1.24e+01    -  1.47e-03 1.00e+00h  1
  28 -1.8300340e-01 5.84e-02 6.64e+01  -6.0 1.32e+01    -  8.62e-01 5.00e-01h  1
  29 -1.9031409e-01 9.13e-01 1.86e+01  -6.0 9.54e+01    -  5.95e-01 7.23e-01f  1
iter    objective    inf_pr   inf_du lg(mu)  ||d||  lg(rg) alpha_du alpha_pr  ls
  30 -1.9453620e-01 2.64e+00 9.96e+00  -6.0 1.11e+02    -  6.22e-01 4.66e-01h  1
  31 -1.9570366e-01 2.82e+00 3.22e+01  -6.0 2.55e+02    -  4.99e-01 8.82e-02h  1
  32 -1.9565493e-01 2.35e+00 3.03e+01  -6.0 8.41e-01  -4.0 4.72e-02 1.67e-01h  1
  33 -1.9529270e-01 2.22e-01 1.76e+01  -6.0 1.70e+00  -4.5 4.14e-01 9.14e-01h  1
  34 -1.9572366e-01 1.13e-01 8.00e-01  -6.0 2.75e+00  -5.0 9.52e-01 9.87e-01h  1
  35 -1.9615945e-01 1.61e-01 5.09e+00  -6.0 7.45e+00  -5.4 7.55e-01 3.82e-01f  1
  36 -1.9631849e-01 2.02e-01 1.60e+01  -6.0 1.96e+01  -5.9 9.98e-01 1.15e-01h  1
  37 -1.9730507e-01 3.83e+00 2.34e+01  -6.0 5.40e+01  -6.4 1.00e+00 3.01e-01h  1
  38 -1.9752541e-01 3.16e+00 4.90e+01  -6.0 1.86e+01  -6.0 5.24e-01 1.75e-01h  1
  39 -1.9827754e-01 2.25e+00 1.63e+03  -6.0 4.42e+01  -6.4 1.00e+00 3.73e-01h  1
iter    objective    inf_pr   inf_du lg(mu)  ||d||  lg(rg) alpha_du alpha_pr  ls
  40 -1.9850145e-01 2.07e+00 3.35e+03  -6.0 6.42e+01  -6.9 5.56e-01 9.01e-02h  1
  41 -1.9940895e-01 1.61e+00 2.28e+03  -6.0 1.16e+02  -7.4 1.23e-01 2.43e-01h  1
  42 -2.0155809e-01 2.36e+00 3.05e+03  -6.0 2.59e+02  -7.9 6.82e-01 2.38e-01h  1
  43 -2.0237200e-01 2.05e+00 4.12e+03  -6.0 4.99e+02  -8.3 2.87e-01 1.30e-01h  1
  44 -2.0345058e-01 1.40e+00 1.17e+04  -6.0 1.73e+02  -7.9 1.00e+00 3.22e-01h  1
  45 -2.0692088e-01 4.78e+00 9.69e+02  -6.0 6.74e+02  -8.4 2.47e-01 5.27e-01h  1
  46 -2.0800476e-01 6.09e+00 1.31e+04  -6.0 7.43e+02  -8.0 2.95e-01 1.84e-01h  1
  47 -2.0890237e-01 4.96e+00 7.91e+04  -6.0 5.06e+02  -8.4 5.11e-01 1.82e-01h  1
  48 -2.0908664e-01 4.94e+00 1.55e+06  -6.0 8.09e+03  -8.9 5.11e-04 4.88e-03h  1
  49 -2.1118603e-01 2.80e+00 8.98e+05  -6.0 5.53e+02  -8.5 1.90e-01 4.15e-01h  1
iter    objective    inf_pr   inf_du lg(mu)  ||d||  lg(rg) alpha_du alpha_pr  ls
  50 -2.1136181e-01 2.77e+00 8.87e+05  -6.0 7.36e+03  -9.0 1.69e-01 1.05e-02h  1
  51 -2.1252110e-01 2.06e+00 6.69e+05  -6.0 5.98e+02  -8.5 8.68e-02 2.46e-01f  1
  52 -2.1411678e-01 1.01e+00 1.45e+05  -6.0 2.07e+02  -8.1 5.58e-01 7.84e-01h  1
  53 -2.1500913e-01 1.96e+00 1.14e+05  -6.0 1.61e+03  -8.6 2.71e-01 2.13e-01h  1
  54 -2.1545249e-01 1.80e+00 9.79e+04  -6.0 5.43e+02  -8.2 7.35e-01 1.39e-01h  1
  55 -2.1695844e-01 1.38e+00 6.52e+02  -6.0 1.60e+02  -7.7 7.17e-01 1.00e+00h  1
  56 -2.1712140e-01 1.38e+00 6.37e+02  -6.0 1.12e+03  -8.2 4.98e-01 2.49e-02h  1
  57 -2.1757261e-01 1.22e+00 1.03e+03  -6.0 4.97e+02  -8.7 4.04e-01 1.17e-01h  1
  58 -2.2001490e-01 1.05e+01 7.22e+02  -6.0 1.49e+03  -8.3 8.27e-01 5.67e-01h  1
  59 -2.2122152e-01 7.13e+00 3.52e+03  -6.0 4.12e+02  -8.8 7.72e-01 3.17e-01h  1
iter    objective    inf_pr   inf_du lg(mu)  ||d||  lg(rg) alpha_du alpha_pr  ls
  60 -2.2336129e-01 4.45e+00 1.39e+04  -6.0 1.28e+02  -7.4 2.79e-02 9.99e-01h  1
  61 -2.2320557e-01 4.47e+00 1.39e+04  -6.0 1.92e+03  -7.9 1.12e-02 2.00e-02h  4
  62 -2.2346536e-01 4.48e+00 9.42e+03  -6.0 2.64e+03  -8.4 1.65e-01 1.46e-02h  1
  63 -2.2584540e-01 2.80e+00 5.71e+03  -6.0 6.39e+02  -8.9 5.32e-01 4.39e-01h  1
  64 -2.2602408e-01 2.61e+00 4.42e+03  -6.0 2.29e+02  -8.4 8.38e-02 6.72e-02h  1
  65 -2.3053070e-01 8.05e+00 1.36e+04  -6.0 7.10e+02  -8.9 8.31e-02 1.00e+00h  1
  66 -2.3132228e-01 6.38e+00 3.72e+03  -6.0 7.38e+02  -8.5 3.32e-01 2.15e-01h  1
  67 -2.3281916e-01 4.20e+00 1.65e+04  -6.0 2.64e+02  -8.1 9.44e-01 6.42e-01h  1
  68 -2.3665339e-01 2.60e+01 1.28e+06  -6.0 2.91e+04  -8.5 2.26e-03 3.46e-02h  1
Error in an AMPL evaluation. Run with "halt_on_ampl_error yes" to see details.
Warning: Cutting back alpha due to evaluation error
  69 -2.3706917e-01 2.63e+01 1.26e+06  -6.0 2.85e+03  -8.1 9.57e-02 1.67e-02h  2
iter    objective    inf_pr   inf_du lg(mu)  ||d||  lg(rg) alpha_du alpha_pr  ls
  70 -2.3716187e-01 2.62e+01 1.25e+06  -6.0 3.87e+02  -7.7 5.17e-02 6.44e-03h  1
  71 -2.3788780e-01 2.78e+01 1.21e+06  -6.0 1.89e+03  -8.2 1.94e-02 3.31e-02h  1
  72 -2.3791899e-01 2.77e+01 1.21e+06  -6.0 4.45e+02  -7.7 1.07e-03 3.04e-03h  1
  73 -2.3800428e-01 2.76e+01 1.20e+06  -6.0 2.12e+03  -8.2 8.30e-03 4.47e-03f  1
  74 -2.3813291e-01 2.73e+01 1.19e+06  -6.0 5.16e+02  -7.8 2.72e-02 1.26e-02h  1
  75 -2.3860849e-01 2.80e+01 1.16e+06  -6.0 2.44e+03  -8.3 7.45e-02 2.26e-02h  1
  76 -2.3926948e-01 2.69e+01 1.08e+06  -6.0 4.59e+02  -8.7 3.00e-01 7.26e-02h  1
  77 -2.3944145e-01 2.66e+01 1.06e+06  -6.0 4.04e+03  -9.2 2.49e-01 1.57e-02h  1
  78 -2.4226297e-01 3.17e+01 6.15e+05  -6.0 3.20e+03  -8.8 4.45e-02 4.19e-01h  1
  79 -2.4254302e-01 3.06e+01 5.93e+05  -6.0 3.99e+03  -9.3 1.66e-01 3.51e-02h  1
iter    objective    inf_pr   inf_du lg(mu)  ||d||  lg(rg) alpha_du alpha_pr  ls
  80 -2.4387423e-01 1.92e+01 3.71e+05  -6.0 1.01e+03  -8.8 4.69e-02 3.75e-01h  1
  81 -2.4447220e-01 1.41e+01 2.73e+05  -6.0 1.68e+03  -9.3 2.43e-01 2.64e-01h  1
  82 -2.4464395e-01 1.32e+01 2.54e+05  -6.0 1.52e+04  -9.8 2.05e-01 6.97e-02h  1
  83 -2.4493039e-01 1.03e+01 1.98e+05  -6.0 4.27e+03  -9.4 3.47e-03 2.21e-01h  1
  84 -2.4502677e-01 8.05e+00 7.31e+03  -6.0 1.41e+03  -8.9 1.29e-01 9.62e-01h  1
  85 -2.4537438e-01 7.38e+00 6.15e+03  -6.0 9.22e+02  -9.4 3.95e-01 1.59e-01h  1
  86 -2.4616933e-01 6.54e+00 5.09e+03  -6.0 1.91e+03  -9.9 5.03e-02 1.71e-01h  1
  87 -2.4672587e-01 1.13e+01 3.27e+03  -6.0 9.82e+02  -9.5 1.04e-01 3.57e-01h  1
  88 -2.4672824e-01 1.12e+01 3.26e+03  -6.0 6.08e+02  -9.0 5.63e-02 1.69e-03h  1
  89 -2.4690153e-01 9.80e+00 2.97e+03  -6.0 3.32e+03  -9.5 1.15e-01 8.89e-02h  1
iter    objective    inf_pr   inf_du lg(mu)  ||d||  lg(rg) alpha_du alpha_pr  ls
  90 -2.4691224e-01 9.78e+00 2.96e+03  -6.0 2.53e+03  -9.1 3.64e-03 3.72e-03h  1
  91 -2.4735450e-01 1.52e+01 2.55e+03  -6.0 1.85e+03  -9.6 3.16e-02 1.41e-01h  1
  92 -2.4736765e-01 1.51e+01 2.53e+03  -6.0 1.01e+04  -9.1 2.98e-03 4.68e-03h  1
  93 -2.4744592e-01 1.61e+01 2.39e+03  -6.0 2.75e+03  -8.7 1.10e-02 5.82e-02h  1
  94 -2.4744619e-01 1.61e+01 2.39e+03  -6.0 3.63e+04  -8.3 1.67e-03 3.00e-04h  1
  95 -2.4743477e-01 1.63e+01 2.37e+03  -6.0 7.69e+03  -8.8 4.92e-06 5.76e-03f  2
  96 -2.4743552e-01 1.63e+01 2.37e+03  -6.0 1.76e+04  -8.3 2.67e-02 1.09e-03h  2
  97 -2.4747395e-01 1.62e+01 2.35e+03  -6.0 1.60e+03  -7.9 3.83e-01 8.53e-03h  1
  98 -2.4747386e-01 1.58e+01 2.29e+03  -6.0 8.38e+02  -8.4 2.00e-01 2.52e-02h  1
  99 -2.4749757e-01 1.38e+01 1.92e+03  -6.0 8.32e+02  -8.9 2.20e-01 1.61e-01h  1
iter    objective    inf_pr   inf_du lg(mu)  ||d||  lg(rg) alpha_du alpha_pr  ls
 100 -2.4763380e-01 9.28e+00 1.38e+03  -6.0 8.14e+02  -9.4 4.50e-01 2.79e-01h  1
 101 -2.4764722e-01 7.43e+00 1.10e+03  -6.0 6.08e+02  -8.9 3.33e-02 2.03e-01h  1
 102 -2.4798599e-01 6.56e+00 9.67e+02  -6.0 9.65e+02  -9.4 2.90e-01 1.24e-01h  1
 103 -2.4875362e-01 5.29e+00 7.75e+02  -6.0 2.65e+03  -9.0 4.55e-02 1.99e-01h  1
 104 -2.5020249e-01 2.29e+01 1.77e+03  -6.0 2.26e+03  -9.5 2.37e-03 4.66e-01h  1
 105 -2.5039382e-01 2.02e+01 1.39e+03  -6.0 1.06e+04  -9.9 1.87e-01 1.77e-01h  1
 106 -2.5142451e-01 2.29e+01 2.23e+03  -6.0 4.11e+03  -9.5 5.32e-06 1.20e-01h  1
 107 -2.5310203e-01 1.85e+01 4.46e+03  -6.0 1.15e+03  -9.1 9.97e-02 4.32e-01h  1
 108 -2.5421013e-01 1.55e+01 7.48e+03  -6.0 1.63e+03  -9.6 4.30e-02 1.99e-01h  1
 109 -2.5450121e-01 1.47e+01 6.93e+03  -6.0 1.43e+03  -9.1 6.69e-02 5.99e-02h  1
iter    objective    inf_pr   inf_du lg(mu)  ||d||  lg(rg) alpha_du alpha_pr  ls
 110 -2.5616862e-01 2.96e+01 5.58e+03  -6.0 4.63e+03  -9.6 1.95e-01 1.93e-01h  1
 111 -2.5654614e-01 2.80e+01 5.70e+03  -6.0 2.01e+03 -10.1 3.77e-02 6.71e-02h  1
 112 -2.5664525e-01 2.75e+01 4.83e+03  -6.0 2.44e+03 -10.6 6.93e-02 2.12e-02h  1
 113 -2.5666157e-01 2.74e+01 4.31e+03  -6.0 8.04e+04    -  2.85e-02 4.59e-03h  1
 114 -2.5714592e-01 2.94e+01 4.95e+03  -6.0 1.11e+04    -  7.10e-02 1.32e-01h  1
 115 -2.5738727e-01 2.86e+01 9.06e+02  -6.0 4.40e+03    -  3.19e-01 7.62e-02h  1
 116 -2.5786880e-01 3.72e+01 1.58e+03  -6.0 8.03e+03    -  1.64e-01 1.21e-01h  1
 117 -2.5843929e-01 5.52e+01 1.68e+03  -6.0 7.12e+03    -  2.27e-01 2.03e-01h  1
 118 -2.5869535e-01 5.11e+01 1.85e+03  -6.0 3.95e+03    -  2.74e-01 1.22e-01h  1
 119 -2.5878663e-01 4.79e+01 6.90e+03  -6.0 2.91e+03    -  8.62e-02 6.38e-02h  1
iter    objective    inf_pr   inf_du lg(mu)  ||d||  lg(rg) alpha_du alpha_pr  ls
 120 -2.5943494e-01 2.96e+01 9.85e+03  -6.0 3.14e+03    -  2.54e-02 3.81e-01h  1
 121 -2.5989492e-01 5.15e+01 6.08e+03  -6.0 4.44e+03    -  4.36e-01 3.87e-01h  1
 122 -2.5995326e-01 5.00e+01 5.53e+03  -6.0 5.70e+03    -  8.31e-02 9.05e-02h  1
 123 -2.6008618e-01 5.92e+01 4.61e+03  -6.0 7.19e+03    -  2.37e-03 1.69e-01h  1
 124 -2.6007266e-01 5.89e+01 4.58e+03  -6.0 3.44e+03    -  8.49e-04 5.99e-03h  1
 125 -2.6037512e-01 2.80e+01 2.22e+03  -6.0 6.80e+02    -  9.89e-02 5.25e-01h  1
 126 -2.6036925e-01 2.45e+01 1.97e+03  -6.0 9.09e+02    -  6.26e-02 1.26e-01h  1
 127 -2.6038160e-01 2.00e+01 1.57e+03  -6.0 1.21e+03    -  5.13e-01 1.83e-01h  1
 128 -2.6045358e-01 1.20e+01 9.41e+02  -6.0 6.45e+02 -10.1 3.42e-01 4.01e-01h  1
 129 -2.6055616e-01 5.57e+01 9.14e+03  -6.0 2.71e+03 -10.6 2.20e-03 6.60e-01h  1
iter    objective    inf_pr   inf_du lg(mu)  ||d||  lg(rg) alpha_du alpha_pr  ls
 130 -2.6055843e-01 5.53e+01 7.88e+04  -6.0 2.76e+03  -9.3 2.97e-01 7.71e-03h  1
 131 -2.6062548e-01 3.24e+01 1.85e+06  -6.0 6.52e+02  -9.8 1.76e-02 4.17e-01h  1
 132 -2.6071123e-01 1.46e+01 8.39e+05  -6.0 6.32e+02    -  4.17e-01 5.48e-01h  1
 133 -2.6074317e-01 1.31e+01 7.52e+05  -6.0 4.16e+03    -  4.32e-01 1.03e-01h  1
 134 -2.6074890e-01 1.29e+01 7.38e+05  -6.0 6.85e+02    -  4.72e-02 1.87e-02h  1
 135 -2.6076205e-01 7.54e+00 3.27e+04  -6.0 6.81e+02    -  1.00e-01 1.00e+00h  1
 136 -2.6075697e-01 6.81e+00 3.16e+04  -6.0 4.60e+03    -  6.13e-01 9.76e-02h  2
 137 -2.6072636e-01 1.56e+00 1.74e+03  -6.0 3.41e+02 -10.2 3.49e-01 9.23e-01h  1
 138 -2.6072269e-01 3.53e+00 1.83e+03  -6.0 1.79e+03    -  2.52e-01 3.62e-02H  1
 139 -2.6071880e-01 2.69e-01 4.10e+02  -6.0 8.46e+01    -  1.73e-01 1.00e+00h  1
iter    objective    inf_pr   inf_du lg(mu)  ||d||  lg(rg) alpha_du alpha_pr  ls
 140 -2.6073035e-01 4.67e-01 1.36e+00  -6.0 1.53e+02  -8.9 1.00e+00 8.68e-01h  1
 141 -2.6075298e-01 2.49e+00 2.84e+00  -6.0 3.64e+02  -9.4 3.09e-01 1.00e+00h  1
 142 -2.6074670e-01 2.05e+00 2.44e+01  -6.0 1.74e+03    -  1.00e+00 1.74e-01H  1
 143 -2.6072139e-01 2.57e-02 1.41e+01  -6.0 1.23e+02    -  4.50e-01 1.00e+00h  1
 144 -2.6072313e-01 2.55e-01 2.46e-03  -6.0 3.44e+01    -  1.00e+00 1.00e+00h  1
 145 -2.6072253e-01 4.74e-03 2.00e-04  -6.0 8.77e+00    -  1.00e+00 1.00e+00h  1
 146 -2.6072249e-01 8.98e-06 1.21e-06  -6.0 6.58e-01    -  1.00e+00 1.00e+00h  1
 147 -2.6117392e-01 1.18e+00 7.59e+01  -7.5 2.44e+03    -  4.71e-01 2.04e-01h  1
 148 -2.6139687e-01 1.90e+00 6.50e+01  -7.5 2.23e+03    -  1.35e-01 1.38e-01h  1
 149 -2.6140850e-01 1.88e+00 9.93e+01  -7.5 2.13e+02  -9.0 2.83e-01 1.35e-02h  1
iter    objective    inf_pr   inf_du lg(mu)  ||d||  lg(rg) alpha_du alpha_pr  ls
 150 -2.6189101e-01 8.68e+00 4.65e+01  -7.5 2.57e+03    -  2.72e-03 4.00e-01f  1
 151 -2.6194453e-01 7.50e+00 1.01e+02  -7.5 2.10e+02  -9.4 5.14e-01 1.36e-01h  1
 152 -2.6198377e-01 7.06e+00 8.94e+01  -7.5 2.88e+03    -  1.53e-02 6.65e-02h  1
 153 -2.6199128e-01 6.92e+00 1.16e+02  -7.5 3.04e+02  -9.9 3.55e-01 2.03e-02h  1
 154 -2.6236896e-01 5.05e+00 7.76e+00  -7.5 1.99e+03    -  2.52e-01 7.73e-01h  1
 155 -2.6237285e-01 4.65e+00 6.07e+00  -7.5 8.13e+02    -  1.26e-01 7.87e-02h  1
 156 -2.6238888e-01 2.29e+00 5.67e+00  -7.5 7.74e+02    -  6.98e-01 5.11e-01f  1
 157 -2.6239277e-01 1.60e+00 3.13e+00  -7.5 3.38e+01  -7.7 7.54e-02 3.00e-01h  1
 158 -2.6239569e-01 5.52e-01 1.95e+00  -7.5 1.13e+01  -8.2 8.79e-01 6.55e-01h  1
 159 -2.6241347e-01 1.51e+00 7.01e-01  -7.5 5.87e+02    -  2.83e-01 6.30e-01h  1
iter    objective    inf_pr   inf_du lg(mu)  ||d||  lg(rg) alpha_du alpha_pr  ls
 160 -2.6241374e-01 1.13e+00 5.21e-01  -7.5 2.34e+00  -8.6 5.75e-01 2.50e-01h  1
 161 -2.6241135e-01 8.42e-04 1.78e-03  -7.5 6.22e+00  -9.1 1.00e+00 1.00e+00h  1
 162 -2.6241199e-01 5.57e-03 7.72e-05  -7.5 1.72e+01  -9.6 1.00e+00 1.00e+00h  1
 163 -2.6241247e-01 3.18e-02 5.07e-04  -7.5 4.12e+01 -10.1 1.00e+00 1.00e+00h  1
 164 -2.6241312e-01 9.65e-02 2.25e-03  -7.5 7.16e+01 -10.5 1.00e+00 1.00e+00h  1
 165 -2.6241371e-01 9.11e-01 3.69e-03  -7.5 7.97e+01 -11.0 1.00e+00 1.00e+00h  1
 166 -2.6241389e-01 2.13e-01 1.25e-03  -7.5 1.35e+02 -11.5 1.00e+00 1.00e+00h  1
 167 -2.6241406e-01 5.65e+00 1.31e-01  -7.5 6.93e+02 -12.0 5.53e-01 1.00e+00h  1
 168 -2.6241402e-01 9.43e-01 2.09e-02  -7.5 2.21e+02    -  4.70e-01 1.00e+00h  1
 169 -2.6241404e-01 6.43e-01 1.27e-04  -7.5 7.89e+01    -  1.00e+00 1.00e+00h  1
iter    objective    inf_pr   inf_du lg(mu)  ||d||  lg(rg) alpha_du alpha_pr  ls
 170 -2.6241407e-01 7.66e-01 2.61e-02  -7.5 1.21e+02    -  5.02e-01 1.00e+00h  1
 171 -2.6241413e-01 7.35e-01 9.57e-04  -7.5 2.31e+02 -11.6 1.00e+00 1.00e+00h  1
 172 -2.6241431e-01 6.79e+00 1.55e-01  -7.5 9.50e+03    -  1.09e-01 7.52e-02h  3
 173 -2.6241450e-01 3.63e+00 5.27e-03  -7.5 5.33e+02 -12.0 1.00e+00 1.00e+00h  1
 174 -2.6241552e-01 2.42e+01 4.37e-01  -7.5 2.00e+03 -12.5 6.97e-01 1.00e+00H  1
 175 -2.6241565e-01 2.40e+01 9.40e-01  -7.5 5.81e+03    -  2.99e-01 4.26e-02h  4
 176 -2.6241625e-01 3.15e+01 9.18e-01  -7.5 2.74e+03    -  1.00e+00 4.01e-01h  2
 177 -2.6241601e-01 7.59e+00 7.36e-01  -7.5 5.70e+02    -  4.07e-01 8.59e-01h  1
 178 -2.6241580e-01 2.20e+00 6.50e-01  -7.5 3.98e+02    -  2.67e-02 1.00e+00h  1
 179 -2.6241623e-01 8.69e+00 1.64e-02  -7.5 7.83e+02    -  1.00e+00 1.00e+00h  1
iter    objective    inf_pr   inf_du lg(mu)  ||d||  lg(rg) alpha_du alpha_pr  ls
 180 -2.6241602e-01 2.06e+00 1.46e-01  -7.5 3.84e+02    -  4.57e-01 1.00e+00h  1
 181 -2.6241605e-01 1.94e-02 9.83e-05  -7.5 3.46e+01    -  1.00e+00 1.00e+00h  1
 182 -2.6241655e-01 1.11e+01 2.20e-01  -7.5 8.82e+02 -12.1 5.64e-01 1.00e+00h  1
 183 -2.6241635e-01 1.84e+00 1.86e-02  -7.5 3.62e+02    -  3.81e-01 1.00e+00h  1
 184 -2.6241646e-01 1.60e+00 1.53e-03  -7.5 1.74e+02    -  1.00e+00 1.00e+00h  1
 185 -2.6241648e-01 1.46e-01 1.16e-02  -7.5 4.62e+01    -  6.05e-01 1.00e+00h  1
 186 -2.6241667e-01 1.68e+00 3.84e-03  -7.5 3.06e+02 -11.7 1.00e+00 1.00e+00h  1
 187 -2.6241729e-01 3.56e+00 6.14e-02  -7.5 8.78e+02    -  1.00e+00 1.00e+00H  1
 188 -2.6241727e-01 1.24e-02 5.40e-04  -7.5 3.17e+01    -  1.00e+00 1.00e+00h  1
 189 -2.6241727e-01 1.02e-04 2.08e-06  -7.5 2.54e+00    -  1.00e+00 1.00e+00h  1
iter    objective    inf_pr   inf_du lg(mu)  ||d||  lg(rg) alpha_du alpha_pr  ls
 190 -2.6241727e-01 2.52e-10 3.11e-12  -7.5 3.82e-03    -  1.00e+00 1.00e+00h  1
 191 -2.6241977e-01 2.99e+00 2.58e+00  -9.0 1.70e+03    -  5.24e-01 2.58e-01h  1
 192 -2.6242184e-01 6.18e+01 1.38e+00  -9.0 5.71e+03    -  2.68e-01 3.41e-01h  1
 193 -2.6242274e-01 4.38e+01 6.40e-01  -9.0 1.56e+03    -  3.78e-01 4.23e-01h  1
 194 -2.6242315e-01 3.66e+01 4.03e-01  -9.0 1.85e+03    -  2.54e-01 2.81e-01h  1
 195 -2.6242423e-01 1.00e+02 1.39e+01  -9.0 4.56e+03    -  3.28e-02 6.49e-01h  1
 196 -2.6242529e-01 4.83e+01 3.88e+01  -9.0 1.82e+03    -  9.40e-04 1.00e+00h  1
 197 -2.6242551e-01 9.27e+00 7.58e+00  -9.0 7.77e+02    -  1.15e-01 1.00e+00h  1
 198 -2.6242585e-01 1.79e+01 8.08e-01  -9.0 1.12e+03    -  4.28e-01 1.00e+00h  1
 199 -2.6242597e-01 8.59e+00 1.87e-01  -9.0 6.71e+02    -  7.60e-01 9.19e-01h  1
iter    objective    inf_pr   inf_du lg(mu)  ||d||  lg(rg) alpha_du alpha_pr  ls
 200 -2.6242598e-01 8.58e+00 1.83e-01  -9.0 8.06e+03    -  2.03e-01 5.19e-03h  5
 201 -2.6242601e-01 8.55e+00 1.24e-01  -9.0 2.23e+03    -  9.12e-01 7.01e-02h  3
 202 -2.6242610e-01 8.75e+00 4.65e-02  -9.0 1.19e+03    -  9.92e-01 3.57e-01H  1
 203 -2.6242604e-01 1.42e+00 5.27e-02  -9.0 3.11e+02    -  4.77e-01 1.00e+00h  1
 204 -2.6242637e-01 3.60e+01 4.23e-02  -9.0 2.00e+03    -  9.89e-02 7.87e-01h  1
 205 -2.6242632e-01 2.80e+01 3.46e-02  -9.0 1.06e+03    -  1.80e-01 2.50e-01h  3
 206 -2.6242634e-01 2.80e+01 3.29e-02  -9.0 3.27e+04    -  5.04e-02 2.97e-03h  5
 207 -2.6242638e-01 2.83e+01 4.31e-02  -9.0 1.50e+04    -  1.02e-01 1.29e-02h  4
 208 -2.6242649e-01 3.54e+00 2.75e-02  -9.0 4.50e+02 -12.1 2.71e-01 1.00e+00h  1
 209 -2.6242700e-01 5.09e+01 1.48e-02  -9.0 3.05e+03    -  3.85e-01 7.83e-01H  1
iter    objective    inf_pr   inf_du lg(mu)  ||d||  lg(rg) alpha_du alpha_pr  ls
 210 -2.6242678e-01 1.83e+01 4.20e-03  -9.0 1.06e+03 -12.6 1.00e+00 1.00e+00h  1
 211 -2.6242687e-01 1.82e+01 1.19e-01  -9.0 2.37e+03    -  2.80e-01 1.88e-01h  3
 212 -2.6242688e-01 1.57e+01 9.40e-01  -9.0 1.30e+03 -13.1 1.00e+00 2.21e-01h  3
 213 -2.6242689e-01 1.57e+01 3.47e-02  -9.0 1.68e+04    -  3.44e-02 1.44e-03h  7
 214 -2.6242698e-01 7.35e+00 1.05e-03  -9.0 6.34e+02 -12.7 1.00e+00 1.00e+00h  1
 215 -2.6242710e-01 2.16e+01 2.12e-01  -9.0 1.09e+03 -13.1 4.73e-01 1.00e+00h  1
 216 -2.6242702e-01 6.38e+00 1.04e+00  -9.0 5.42e+02    -  2.10e-01 1.00e+00h  1
 217 -2.6242700e-01 6.07e-01 2.31e-05  -9.0 6.44e+01    -  1.00e+00 1.00e+00h  1
 218 -2.6242704e-01 4.77e+00 1.02e-02  -9.0 3.18e+02    -  1.39e-01 1.00e+00h  1
 219 -2.6242704e-01 4.70e+00 3.83e-02  -9.0 2.98e+03 -13.6 5.23e-01 1.72e-02h  6
iter    objective    inf_pr   inf_du lg(mu)  ||d||  lg(rg) alpha_du alpha_pr  ls
 220 -2.6242705e-01 4.68e+00 8.53e-02  -9.0 5.79e+03    -  5.10e-01 4.38e-03h  7
 221 -2.6242707e-01 4.21e+00 6.92e-02  -9.0 1.40e+03    -  1.00e+00 1.25e-01h  4
 222 -2.6242726e-01 1.21e+01 1.22e-02  -9.0 1.22e+03    -  7.71e-01 1.00e+00H  1
 223 -2.6242729e-01 7.92e+00 5.20e-03  -9.0 5.97e+02    -  1.00e+00 1.00e+00h  1
 224 -2.6242730e-01 1.13e+00 2.41e-04  -9.0 2.17e+02    -  1.00e+00 1.00e+00h  1
 225 -2.6242730e-01 5.72e-03 3.09e-06  -9.0 1.70e+01    -  1.00e+00 1.00e+00h  1
 226 -2.6242730e-01 5.29e-07 2.01e-10  -9.0 1.59e-01    -  1.00e+00 1.00e+00h  1
 227 -2.6242730e-01 2.82e-10 1.59e-14  -9.0 1.17e-04    -  1.00e+00 1.00e+00h  1

Number of Iterations....: 227

                                   (scaled)                 (unscaled)
Objective...............:  -2.6242729589462210e-01   -2.6242729589462210e-01
Dual infeasibility......:   1.5876189252139739e-14    1.5876189252139739e-14
Constraint violation....:   2.8238080482852895e-10    2.8238080482852895e-10
Complementarity.........:   9.0909092287324419e-10    9.0909092287324419e-10
Overall NLP error.......:   9.0909092287324419e-10    9.0909092287324419e-10


Number of objective function evaluations             = 366
Number of objective gradient evaluations             = 228
Number of equality constraint evaluations            = 367
Number of inequality constraint evaluations          = 367
Number of equality constraint Jacobian evaluations   = 228
Number of inequality constraint Jacobian evaluations = 228
Number of Lagrangian Hessian evaluations             = 227
Total CPU secs in IPOPT (w/o function evaluations)   =    481.813
Total CPU secs in NLP function evaluations           =      8.394

EXIT: Optimal Solution Found.
